Maximize
 
Subject To
 R16556: co2o3endy1 + 10000 co2o3endy1Bigger9 >= 10
 R17010: co2o3endy1 = 0
 R17020: co2o3endy1Bigger9 = 0
Bounds
 co2o3endy1 free
 co2o3endy1Bigger9 free
Generals
 co2o3endy1
End
